data/processed_heuristic-threshold/instances/1/8/ds_606_courier_2208/pairwise.tsp
NAME: ds_606_courier_2208
TYPE: TSP
COMMENT: nil
DIMENSION: 9
EDGE_WEIGHT_TYPE: EXPLICIT
EDGE_WEIGHT_FORMAT: FULL_MATRIX
EDGE_WEIGHT_SECTION
9999 2109 2197 1922 2364 2235 1766 2194 2316 
2109 9999 192 222 332 800 413 316 210 
2197 192 9999 278 171 980 438 137 246 
1922 222 278 9999 449 930 191 320 425 
2364 332 171 449 9999 1060 600 200 265 
2235 800 980 930 1060 9999 1064 1113 797 
1766 413 438 191 600 1064 9999 430 614 
2194 316 137 320 200 1113 430 9999 376 
2316 210 246 425 265 797 614 376 9999 
