data/processed_heuristic-threshold/instances/1/8/ds_606_courier_2208/pairwise.sol
9
0 5 8 4 7 2 1 3 6 
